33D32945 STP File, STP Format Version 1.0

SECTION Comments
Name "edge_n15_d2_s41"
Problem "Euclidean Steiner Tree Problem"
Remark "Generated with STPGenerator. 2 dimensions."
END

SECTION Graph
Nodes 15
END

SECTION Coordinates
DD 0 0.6702460561 0.6702460561
DD 1 0.9116797088 0.9116797088
DD 2 0.3821349500 0.3821349500
DD 3 0.5965716008 0.5965716008
DD 4 0.2660512897 0.2660512897
DD 5 0.0223274580 0.0223274580
DD 6 0.7685739201 0.7685739201
DD 7 0.5612500564 0.5612500564
DD 8 0.4878506383 0.4878506383
DD 9 0.4318964698 0.4318964698
DD 10 0.8467889367 0.8467889367
DD 11 0.5935844293 0.5935844293
DD 12 0.9065222973 0.9065222973
DD 13 0.5735588286 0.5735588286
DD 14 0.6033617564 0.6033617564
END
